p wcnf 23 23 10
10 1 0
10 2 0
10 3 0
10 4 0
10 5 0
10 6 0
10 7 0
10 8 0
10 9 0
10 10 0
10 11 0
10 12 0
10 13 0
10 14 -15 -3 0
10 16 -15 -4 0
10 17 -7 -2 0
10 18 -8 -3 0
10 19 -9 -6 0
10 15 -7 -1 0
10 20 -17 -6 0
10 21 -9 -5 0
10 22 -17 -5 0
10 23 -8 -4 0
